N = 100;
MinK = 10;
Capacity = 200;

Scale = 10;
DistanceRoundingMode = Floor;
X = array1d(0..N, [40, 45, 45, 42, 42, 42, 40, 40, 38, 38, 35, 35, 25, 22, 22, 20, 20, 18, 15, 15, 30, 30, 28, 28, 25, 25, 25, 23, 23, 20, 20, 10, 10, 8, 8, 5, 5, 2, 0, 0, 35, 35, 33, 33, 32, 30, 30, 30, 28, 28, 26, 25, 25, 44, 42, 42, 40, 40, 38, 38, 35, 50, 50, 50, 48, 48, 47, 47, 45, 45, 95, 95, 53, 92, 53, 45, 90, 88, 88, 87, 85, 85, 75, 72, 70, 68, 66, 65, 65, 63, 60, 60, 67, 65, 65, 62, 60, 60, 58, 55, 55]);
Y = array1d(0..N, [50, 68, 70, 66, 68, 65, 69, 66, 68, 70, 66, 69, 85, 75, 85, 80, 85, 75, 75, 80, 50, 52, 52, 55, 50, 52, 55, 52, 55, 50, 55, 35, 40, 40, 45, 35, 45, 40, 40, 45, 30, 32, 32, 35, 30, 30, 32, 35, 30, 35, 32, 30, 35, 5, 10, 15, 5, 15, 5, 15, 5, 30, 35, 40, 30, 40, 35, 40, 30, 35, 30, 35, 30, 30, 35, 65, 35, 30, 35, 30, 25, 35, 55, 55, 58, 60, 55, 55, 60, 58, 55, 60, 85, 85, 82, 80, 80, 85, 75, 80, 85]);

Demands = array1d(1..N, [10, 30, 10, 10, 10, 20, 20, 20, 10, 10, 10, 20, 30, 10, 40, 40, 20, 20, 10, 10, 20, 20, 10, 10, 40, 10, 10, 20, 10, 10, 20, 30, 40, 20, 10, 10, 20, 30, 20, 10, 10, 20, 10, 10, 10, 30, 10, 10, 10, 10, 10, 10, 20, 40, 10, 30, 40, 30, 10, 20, 10, 20, 50, 10, 10, 10, 10, 10, 10, 30, 20, 10, 10, 50, 20, 10, 10, 20, 10, 10, 30, 20, 10, 20, 30, 10, 20, 30, 10, 10, 10, 20, 40, 10, 30, 10, 30, 20, 10, 20]);

ServiceTimes = array1d(1..N, [90, 90, 90, 90, 90, 90, 90, 90, 90, 90, 90, 90, 90, 90, 90, 90, 90, 90, 90, 90, 90, 90, 90, 90, 90, 90, 90, 90, 90, 90, 90, 90, 90, 90, 90, 90, 90, 90, 90, 90, 90, 90, 90, 90, 90, 90, 90, 90, 90, 90, 90, 90, 90, 90, 90, 90, 90, 90, 90, 90, 90, 90, 90, 90, 90, 90, 90, 90, 90, 90, 90, 90, 90, 90, 90, 90, 90, 90, 90, 90, 90, 90, 90, 90, 90, 90, 90, 90, 90, 90, 90, 90, 90, 90, 90, 90, 90, 90, 90, 90]);

TimeWindows = array2d(1..2, 0..N, [|
     0, 912, 825,  65, 727, 15, 621, 170, 255, 534, 357, 448, 652, 30, 567, 384, 475,  99, 179, 278, 10, 914, 812, 732,  65, 169, 622, 261, 546, 358, 449, 200,  31,  87, 751, 283, 665, 383, 479, 567, 264, 166,  68, 16, 359, 541, 448, 1054, 632, 1001, 815, 725, 912, 286, 186,  95, 385, 35, 471, 651, 562, 531, 262, 171, 632,  76, 826, 12, 734, 916, 387, 293, 450, 478, 353,  997, 203, 574, 109, 668, 769,  47, 369, 265, 458, 555, 173,  85, 645, 737, 20, 836, 368, 475, 285, 196,  95, 561, 30, 743, 647 |
  1236, 967, 870, 146, 782, 67, 702, 225, 324, 605, 410, 505, 721, 92, 620, 429, 528, 148, 254, 345, 73, 965, 883, 777, 144, 224, 701, 316, 593, 405, 504, 237, 100, 158, 816, 344, 716, 434, 522, 624, 321, 235, 149, 80, 412, 600, 509, 1127, 693, 1066, 880, 786, 969, 347, 257, 158, 436, 87, 534, 740, 629, 610, 317, 218, 693, 129, 875, 77, 777, 969, 456, 360, 505, 551, 412, 1068, 260, 643, 170, 731, 820, 124, 420, 338, 523, 612, 238, 144, 708, 802, 84, 889, 441, 518, 336, 239, 156, 622, 84, 820, 726
|]);
